CPXPARAM_Read_DataCheck                          1
Found incumbent of value 0.000000 after 0.00 sec. (0.38 ticks)
Tried aggregator 1 time.
MIP Presolve modified 1 coefficients.
Reduced MIP has 1046 rows, 15015 columns, and 75060 nonzeros.
Reduced MIP has 15015 binaries, 0 generals, 0 SOSs, and 0 indicators.
Presolve time = 0.03 sec. (29.22 ticks)
Tried aggregator 1 time.
Reduced MIP has 1046 rows, 15015 columns, and 75060 nonzeros.
Reduced MIP has 15015 binaries, 0 generals, 0 SOSs, and 0 indicators.
Presolve time = 0.03 sec. (34.36 ticks)
Probing time = 0.02 sec. (4.35 ticks)
Clique table members: 29583.
MIP emphasis: balance optimality and feasibility.
MIP search method: dynamic search.
Parallel mode: deterministic, using up to 4 threads.
Root relaxation solution time = 0.16 sec. (172.97 ticks)

        Nodes                                         Cuts/
   Node  Left     Objective  IInf  Best Integer    Best Bound    ItCnt     Gap

*     0+    0                            0.0000    92874.0000              --- 
      0     0    19396.8133    24        0.0000    19396.8133     2020     --- 
*     0+    0                        16329.0000    19396.8133            18.79%
      0     0    18179.8237   607    16329.0000     Cuts: 361     3407   11.33%
*     0+    0                        16526.0000    18179.8237            10.01%
      0     0    17820.3635  1152    16526.0000     Cuts: 361     4545    7.83%
*     0+    0                        16775.0000    17820.3635             6.23%
      0     0    17553.4529  1564    16775.0000     Cuts: 361     5957    4.64%
*     0+    0                        16898.0000    17553.4529             3.88%
      0     0    17364.3590  1765    16898.0000     Cuts: 361     7549    2.76%
*     0+    0                        16952.0000    17364.3590             2.43%
      0     0    17265.9869  1806    16952.0000     Cuts: 361     8901    1.85%
*     0+    0                        17022.0000    17265.9869             1.43%
      0     0    17166.2352  2370    17022.0000     Cuts: 361    10183    0.85%
      0     0        cutoff          17022.0000    17022.0000    11519    0.00%
Elapsed time = 14.86 sec. (7709.01 ticks, tree = 0.01 MB, solutions = 7)

Clique cuts applied:  2052
Cover cuts applied:  16
Mixed integer rounding cuts applied:  57
Zero-half cuts applied:  3

Root node processing (before b&c):
  Real time             =   14.86 sec. (7710.53 ticks)
Parallel b&c, 4 threads:
  Real time             =    0.00 sec. (0.00 ticks)
  Sync time (average)   =    0.00 sec.
  Wait time (average)   =    0.00 sec.
                          ------------
Total (root+branch&cut) =   14.86 sec. (7710.53 ticks)
